************************************************************************
file with basedata            : mm29_.bas
initial value random generator: 1758219923
************************************************************************
projects                      :  1
jobs (incl. supersource/sink ):  12
horizon                       :  73
RESOURCES
  - renewable                 :  2   R
  - nonrenewable              :  2   N
  - doubly constrained        :  0   D
************************************************************************
PROJECT INFORMATION:
pronr.  #jobs rel.date duedate tardcost  MPM-Time
    1     10      0       17        4       17
************************************************************************
PRECEDENCE RELATIONS:
jobnr.    #modes  #successors   successors
   0        1          3           1   2   3
   1        3          3           5   7   8
   2        3          3           5   6  10
   3        3          2           4   6
   4        3          1           8
   5        3          1           9
   6        3          1           7
   7        3          1           9
   8        3          1          11
   9        3          1          11
  10        3          1          11
  11        1          0        
************************************************************************
REQUESTS/DURATIONS:
jobnr. mode duration  R 1  R 2  R 3  R 4  E(W 1)  E(W 2)  E(W 3)
------------------------------------------------------------------------
  0      1     0       0    0    0    0     0       0       0
  1      1     3       7    0    6    4    21      18      12
  2      1     6       0    6   10    7    36      60      42
  3      1     2       6    0   10    4    12      20       8
  4      1     5       0    4    8    8    20      40      40
  5      1     1       0    8    5    9     8       5       9
  6      1     2       0    6    2    8    12       4      16
  7      1     4       0    9    4    3    36      16      12
  8      1     2       0    2    8    7     4      16      14
  9      1     5       4    0    5   10    20      25      50
 10      1     2       7    0    7   10    14      14      20
 11      1     0       0    0    0    0     0       0       0
************************************************************************
RESOURCEAVAILABILITIES:
  R 1  R 2  R 3
   53   43   58
************************************************************************
RESOURCE LIMITS:
jobnr.  l(R 1)  u(R 1)  l(R 2)  u(R 2)  l(R 3)  u(R 3)
------------------------------------------------------------------------
  0        0       0       0       0       0       0
  1        4       7       3       6       2       4
  2        3       6       5      10       4       7
  3        3       6       5      10       2       4
  4        2       4       4       8       4       8
  5        4       8       3       5       5       9
  6        3       6       1       2       4       8
  7        5       9       2       4       2       3
  8        1       2       4       8       4       7
  9        2       4       3       5       5      10
 10        4       7       4       7       5      10
 11        0       0       0       0       0       0
************************************************************************
SCENARIOS:
------------------------------------------------------------------------
RESOURCE k = 1
s = 1: (0, 17, 23, 10, 28, 11, 13, 33, 6, 24, 14, 0)
s = 2: (0, 15, 34, 9, 15, 11, 15, 32, 4, 14, 21, 0)
s = 3: (0, 15, 31, 7, 18, 9, 16, 53, 6, 18, 22, 0)
s = 4: (0, 19, 43, 10, 13, 7, 17, 62, 4, 20, 18, 0)
s = 5: (0, 23, 24, 9, 16, 9, 8, 21, 5, 26, 11, 0)
s = 6: (0, 34, 25, 9, 19, 7, 14, 26, 4, 19, 13, 0)
s = 7: (0, 27, 40, 13, 25, 8, 13, 25, 6, 29, 16, 0)
s = 8: (0, 14, 38, 18, 30, 12, 14, 33, 4, 20, 10, 0)
s = 9: (0, 41, 31, 11, 22, 11, 12, 24, 5, 30, 17, 0)
s = 10: (0, 19, 53, 17, 22, 6, 10, 33, 7, 20, 18, 0)
s = 11: (0, 23, 41, 11, 24, 6, 11, 39, 4, 23, 17, 0)
s = 12: (0, 15, 27, 17, 17, 10, 7, 35, 4, 17, 14, 0)
s = 13: (0, 20, 25, 9, 18, 8, 12, 42, 5, 12, 9, 0)
s = 14: (0, 17, 50, 10, 22, 8, 14, 63, 5, 16, 17, 0)
s = 15: (0, 23, 37, 14, 17, 10, 14, 59, 5, 28, 17, 0)
s = 16: (0, 31, 25, 13, 19, 9, 9, 32, 6, 14, 19, 0)
s = 17: (0, 20, 26, 16, 24, 6, 13, 32, 6, 23, 18, 0)
s = 18: (0, 17, 29, 17, 19, 9, 13, 25, 6, 14, 14, 0)
s = 19: (0, 19, 27, 7, 23, 10, 11, 49, 4, 24, 13, 0)
s = 20: (0, 15, 37, 23, 13, 6, 14, 36, 4, 18, 11, 0)
s = 21: (0, 17, 40, 10, 23, 8, 16, 57, 3, 29, 15, 0)
s = 22: (0, 31, 24, 11, 20, 8, 9, 38, 5, 31, 11, 0)
s = 23: (0, 18, 47, 15, 25, 9, 9, 32, 3, 28, 12, 0)
s = 24: (0, 30, 26, 12, 14, 13, 10, 27, 6, 17, 10, 0)
s = 25: (0, 24, 33, 8, 14, 6, 15, 28, 3, 28, 18, 0)
s = 26: (0, 14, 49, 21, 38, 8, 13, 30, 6, 24, 16, 0)
s = 27: (0, 18, 51, 11, 19, 7, 9, 22, 4, 25, 12, 0)
s = 28: (0, 25, 28, 16, 17, 8, 18, 39, 3, 25, 19, 0)
s = 29: (0, 14, 31, 10, 19, 11, 12, 33, 3, 21, 13, 0)
s = 30: (0, 24, 38, 8, 23, 6, 11, 44, 5, 14, 9, 0)
s = 31: (0, 28, 53, 12, 19, 8, 13, 32, 5, 20, 13, 0)
s = 32: (0, 21, 43, 13, 34, 10, 11, 24, 5, 18, 20, 0)
s = 33: (0, 25, 23, 19, 20, 7, 20, 43, 7, 24, 14, 0)
s = 34: (0, 19, 32, 13, 13, 7, 13, 35, 4, 20, 10, 0)
s = 35: (0, 16, 24, 12, 32, 9, 11, 27, 5, 11, 13, 0)
s = 36: (0, 22, 40, 15, 25, 13, 10, 36, 5, 23, 17, 0)
s = 37: (0, 20, 33, 14, 25, 12, 12, 52, 3, 27, 22, 0)
s = 38: (0, 28, 41, 9, 22, 7, 11, 58, 3, 15, 11, 0)
s = 39: (0, 19, 49, 12, 14, 8, 12, 42, 4, 26, 10, 0)
s = 40: (0, 28, 25, 8, 15, 9, 16, 26, 5, 12, 16, 0)
s = 41: (0, 17, 23, 11, 25, 9, 8, 21, 3, 16, 20, 0)
s = 42: (0, 16, 40, 10, 19, 7, 10, 38, 4, 27, 13, 0)
s = 43: (0, 26, 27, 13, 20, 8, 15, 38, 6, 22, 14, 0)
s = 44: (0, 21, 34, 18, 20, 6, 14, 62, 4, 18, 18, 0)
s = 45: (0, 16, 32, 21, 24, 9, 10, 42, 3, 31, 11, 0)
s = 46: (0, 25, 39, 22, 29, 5, 14, 36, 5, 28, 20, 0)
s = 47: (0, 16, 32, 17, 28, 7, 11, 33, 3, 35, 19, 0)
s = 48: (0, 20, 56, 18, 22, 8, 15, 36, 3, 20, 27, 0)
s = 49: (0, 15, 37, 13, 23, 11, 14, 40, 3, 15, 13, 0)
s = 50: (0, 17, 34, 12, 17, 8, 12, 31, 6, 26, 21, 0)
s = 51: (0, 24, 32, 12, 24, 12, 15, 21, 5, 30, 14, 0)
s = 52: (0, 14, 39, 10, 16, 6, 10, 37, 3, 19, 16, 0)
s = 53: (0, 21, 55, 9, 19, 7, 11, 25, 3, 12, 9, 0)
s = 54: (0, 20, 38, 9, 17, 7, 8, 23, 3, 28, 11, 0)
s = 55: (0, 14, 44, 10, 15, 7, 10, 22, 5, 15, 16, 0)
s = 56: (0, 18, 39, 20, 20, 9, 16, 45, 4, 19, 15, 0)
s = 57: (0, 14, 31, 10, 27, 11, 15, 39, 7, 17, 17, 0)
s = 58: (0, 18, 30, 11, 27, 6, 10, 37, 5, 19, 10, 0)
s = 59: (0, 20, 28, 11, 12, 8, 10, 42, 4, 17, 8, 0)
s = 60: (0, 19, 70, 9, 14, 7, 16, 24, 3, 25, 15, 0)
s = 61: (0, 22, 27, 13, 21, 10, 12, 27, 5, 14, 16, 0)
s = 62: (0, 18, 41, 12, 19, 11, 10, 42, 5, 26, 12, 0)
s = 63: (0, 19, 39, 20, 26, 8, 18, 35, 5, 22, 15, 0)
s = 64: (0, 15, 27, 14, 23, 9, 14, 71, 3, 15, 16, 0)
s = 65: (0, 40, 29, 12, 22, 9, 20, 29, 4, 27, 9, 0)
s = 66: (0, 16, 28, 18, 24, 9, 15, 35, 3, 15, 12, 0)
s = 67: (0, 14, 31, 12, 12, 8, 10, 28, 3, 20, 11, 0)
s = 68: (0, 21, 28, 13, 15, 8, 12, 38, 5, 20, 15, 0)
s = 69: (0, 14, 42, 15, 27, 6, 14, 36, 4, 14, 12, 0)
s = 70: (0, 24, 31, 9, 16, 7, 9, 52, 3, 23, 17, 0)
s = 71: (0, 17, 39, 15, 24, 6, 10, 36, 6, 26, 24, 0)
s = 72: (0, 27, 50, 15, 33, 6, 12, 20, 4, 11, 13, 0)
s = 73: (0, 20, 28, 13, 18, 7, 12, 29, 3, 23, 13, 0)
s = 74: (0, 37, 48, 12, 20, 8, 17, 39, 6, 35, 17, 0)
s = 75: (0, 24, 35, 10, 18, 10, 9, 23, 4, 30, 16, 0)
s = 76: (0, 27, 46, 20, 29, 7, 11, 39, 5, 29, 12, 0)
s = 77: (0, 17, 25, 16, 27, 6, 18, 32, 3, 21, 9, 0)
s = 78: (0, 16, 27, 9, 28, 11, 10, 24, 4, 17, 22, 0)
s = 79: (0, 19, 22, 15, 16, 11, 8, 53, 6, 12, 13, 0)
s = 80: (0, 33, 22, 11, 17, 9, 15, 40, 4, 21, 13, 0)
s = 81: (0, 22, 40, 12, 22, 9, 8, 26, 3, 26, 14, 0)
s = 82: (0, 18, 34, 16, 25, 9, 9, 40, 4, 29, 12, 0)
s = 83: (0, 27, 34, 14, 28, 8, 17, 43, 6, 18, 11, 0)
s = 84: (0, 29, 40, 10, 35, 9, 14, 33, 6, 29, 24, 0)
s = 85: (0, 19, 44, 9, 17, 10, 11, 59, 3, 24, 17, 0)
s = 86: (0, 23, 32, 10, 12, 6, 16, 44, 4, 17, 18, 0)
s = 87: (0, 23, 33, 11, 17, 9, 8, 26, 4, 17, 8, 0)
s = 88: (0, 13, 25, 11, 25, 7, 17, 41, 4, 16, 9, 0)
s = 89: (0, 23, 51, 11, 18, 8, 10, 47, 7, 28, 16, 0)
s = 90: (0, 18, 66, 11, 17, 13, 14, 34, 6, 17, 18, 0)
s = 91: (0, 20, 44, 10, 19, 12, 20, 25, 5, 18, 21, 0)
s = 92: (0, 33, 22, 15, 18, 5, 11, 40, 6, 21, 17, 0)
s = 93: (0, 23, 48, 9, 18, 12, 19, 36, 3, 19, 14, 0)
s = 94: (0, 27, 34, 8, 22, 7, 13, 55, 4, 16, 11, 0)
s = 95: (0, 22, 30, 19, 11, 9, 14, 30, 6, 20, 12, 0)
s = 96: (0, 16, 50, 8, 12, 11, 12, 30, 5, 22, 15, 0)
s = 97: (0, 27, 58, 15, 19, 7, 18, 37, 3, 23, 17, 0)
s = 98: (0, 22, 42, 14, 21, 9, 15, 32, 4, 32, 12, 0)
s = 99: (0, 30, 37, 9, 20, 11, 10, 40, 5, 17, 14, 0)
s = 100: (0, 21, 43, 15, 15, 8, 12, 53, 5, 29, 15, 0)
s = 101: (0, 28, 26, 21, 18, 6, 12, 28, 6, 16, 20, 0)
s = 102: (0, 25, 40, 9, 12, 9, 19, 30, 5, 25, 16, 0)
s = 103: (0, 35, 41, 17, 20, 7, 20, 44, 4, 21, 21, 0)
s = 104: (0, 14, 27, 12, 24, 9, 9, 29, 4, 15, 17, 0)
s = 105: (0, 16, 28, 11, 21, 8, 12, 46, 4, 15, 18, 0)
s = 106: (0, 30, 50, 16, 12, 6, 15, 27, 3, 19, 17, 0)
s = 107: (0, 17, 28, 14, 17, 7, 7, 60, 5, 15, 17, 0)
s = 108: (0, 19, 32, 17, 12, 9, 17, 39, 4, 28, 17, 0)
s = 109: (0, 25, 39, 16, 23, 10, 14, 35, 5, 18, 15, 0)
s = 110: (0, 30, 28, 7, 17, 10, 20, 32, 5, 24, 13, 0)
s = 111: (0, 14, 23, 10, 23, 7, 20, 39, 6, 20, 13, 0)
s = 112: (0, 15, 33, 8, 21, 7, 10, 25, 5, 18, 17, 0)
s = 113: (0, 36, 27, 8, 13, 6, 9, 56, 5, 28, 12, 0)
s = 114: (0, 19, 39, 8, 23, 7, 11, 34, 5, 20, 14, 0)
s = 115: (0, 22, 32, 13, 30, 11, 11, 44, 4, 18, 13, 0)
s = 116: (0, 17, 50, 16, 13, 7, 11, 45, 3, 20, 13, 0)
s = 117: (0, 15, 36, 16, 23, 15, 10, 47, 4, 22, 11, 0)
s = 118: (0, 13, 39, 8, 23, 6, 17, 43, 4, 17, 16, 0)
s = 119: (0, 19, 43, 15, 23, 7, 11, 51, 4, 14, 16, 0)
s = 120: (0, 17, 28, 14, 29, 7, 21, 32, 4, 21, 16, 0)
s = 121: (0, 14, 22, 14, 14, 8, 12, 24, 4, 11, 14, 0)
s = 122: (0, 20, 43, 12, 26, 10, 12, 38, 5, 21, 17, 0)
s = 123: (0, 16, 32, 15, 24, 10, 18, 45, 7, 15, 10, 0)
s = 124: (0, 25, 37, 12, 30, 7, 21, 27, 5, 12, 14, 0)
s = 125: (0, 24, 44, 13, 18, 9, 14, 31, 4, 17, 16, 0)
s = 126: (0, 37, 21, 14, 16, 8, 11, 49, 3, 19, 10, 0)
s = 127: (0, 27, 44, 15, 14, 7, 15, 21, 5, 20, 15, 0)
s = 128: (0, 26, 21, 22, 19, 8, 13, 21, 5, 13, 17, 0)
s = 129: (0, 18, 31, 13, 16, 12, 16, 30, 4, 24, 16, 0)
s = 130: (0, 18, 29, 12, 17, 9, 16, 42, 3, 21, 13, 0)
s = 131: (0, 20, 27, 8, 26, 16, 9, 19, 6, 15, 17, 0)
s = 132: (0, 21, 20, 13, 17, 8, 14, 33, 4, 18, 11, 0)
s = 133: (0, 19, 29, 8, 16, 7, 16, 57, 6, 15, 16, 0)
s = 134: (0, 19, 39, 18, 20, 6, 12, 25, 4, 15, 12, 0)
s = 135: (0, 33, 46, 19, 20, 11, 11, 55, 4, 29, 11, 0)
s = 136: (0, 20, 45, 9, 23, 11, 7, 24, 3, 36, 17, 0)
s = 137: (0, 31, 58, 7, 25, 11, 16, 26, 4, 27, 20, 0)
s = 138: (0, 17, 43, 12, 19, 6, 12, 42, 4, 14, 8, 0)
s = 139: (0, 13, 57, 15, 19, 6, 9, 52, 3, 23, 19, 0)
s = 140: (0, 17, 64, 11, 14, 7, 8, 37, 4, 29, 12, 0)
s = 141: (0, 15, 48, 12, 11, 8, 7, 25, 5, 14, 21, 0)
s = 142: (0, 26, 44, 12, 15, 8, 18, 48, 4, 21, 14, 0)
s = 143: (0, 16, 48, 14, 16, 5, 19, 47, 5, 14, 13, 0)
s = 144: (0, 29, 70, 17, 34, 6, 12, 45, 6, 26, 11, 0)
s = 145: (0, 22, 21, 11, 15, 8, 10, 37, 5, 30, 19, 0)
s = 146: (0, 32, 34, 11, 23, 12, 20, 33, 5, 18, 14, 0)
s = 147: (0, 28, 21, 12, 23, 11, 12, 29, 3, 24, 26, 0)
s = 148: (0, 21, 40, 14, 21, 9, 15, 46, 5, 17, 14, 0)
s = 149: (0, 15, 39, 16, 30, 7, 8, 21, 3, 22, 11, 0)
s = 150: (0, 14, 47, 11, 12, 5, 17, 52, 4, 24, 18, 0)
s = 151: (0, 16, 41, 11, 24, 13, 11, 37, 3, 31, 24, 0)
s = 152: (0, 19, 41, 8, 19, 7, 11, 49, 5, 16, 15, 0)
s = 153: (0, 29, 24, 14, 15, 10, 9, 31, 5, 18, 17, 0)
s = 154: (0, 13, 51, 15, 30, 6, 11, 59, 6, 16, 18, 0)
s = 155: (0, 20, 49, 18, 18, 6, 8, 50, 7, 14, 13, 0)
s = 156: (0, 19, 34, 12, 20, 6, 15, 36, 3, 14, 18, 0)
s = 157: (0, 33, 34, 16, 20, 7, 8, 36, 4, 32, 20, 0)
s = 158: (0, 33, 26, 10, 18, 11, 9, 22, 4, 19, 19, 0)
s = 159: (0, 15, 28, 10, 14, 9, 18, 41, 6, 17, 17, 0)
s = 160: (0, 12, 22, 14, 15, 7, 9, 47, 3, 23, 16, 0)
s = 161: (0, 19, 37, 12, 15, 14, 9, 41, 3, 18, 13, 0)
s = 162: (0, 21, 40, 11, 15, 5, 13, 38, 3, 24, 22, 0)
s = 163: (0, 26, 34, 10, 28, 5, 14, 27, 4, 21, 15, 0)
s = 164: (0, 33, 44, 20, 15, 6, 8, 47, 4, 12, 14, 0)
s = 165: (0, 15, 49, 12, 33, 6, 9, 32, 5, 17, 13, 0)
s = 166: (0, 31, 62, 15, 23, 6, 16, 24, 4, 16, 10, 0)
s = 167: (0, 27, 51, 14, 27, 8, 10, 33, 3, 30, 12, 0)
s = 168: (0, 23, 64, 15, 18, 9, 14, 38, 4, 24, 9, 0)
s = 169: (0, 27, 25, 10, 21, 6, 12, 22, 3, 25, 17, 0)
s = 170: (0, 20, 37, 11, 15, 10, 10, 38, 7, 20, 12, 0)
s = 171: (0, 17, 45, 8, 22, 9, 15, 34, 6, 24, 12, 0)
s = 172: (0, 14, 27, 14, 11, 9, 8, 22, 6, 15, 18, 0)
s = 173: (0, 24, 43, 11, 27, 7, 13, 42, 4, 14, 9, 0)
s = 174: (0, 26, 47, 10, 26, 8, 12, 51, 5, 16, 18, 0)
s = 175: (0, 19, 38, 17, 17, 5, 13, 50, 4, 27, 15, 0)
s = 176: (0, 21, 26, 9, 14, 11, 14, 23, 6, 16, 11, 0)
s = 177: (0, 27, 21, 16, 25, 7, 20, 29, 6, 21, 18, 0)
s = 178: (0, 15, 23, 12, 19, 13, 14, 51, 7, 26, 18, 0)
s = 179: (0, 20, 41, 13, 21, 6, 9, 36, 4, 20, 18, 0)
s = 180: (0, 19, 42, 14, 20, 8, 12, 33, 3, 16, 11, 0)
s = 181: (0, 13, 38, 12, 18, 8, 12, 64, 4, 25, 12, 0)
s = 182: (0, 25, 25, 12, 22, 8, 17, 33, 5, 26, 10, 0)
s = 183: (0, 17, 44, 7, 22, 10, 11, 31, 4, 21, 13, 0)
s = 184: (0, 23, 29, 12, 25, 9, 18, 45, 5, 22, 9, 0)
s = 185: (0, 17, 41, 15, 31, 9, 14, 51, 4, 20, 12, 0)
s = 186: (0, 22, 45, 13, 16, 10, 23, 30, 3, 21, 10, 0)
s = 187: (0, 23, 29, 14, 14, 6, 14, 24, 5, 20, 11, 0)
s = 188: (0, 19, 40, 16, 21, 6, 9, 26, 5, 18, 23, 0)
s = 189: (0, 15, 29, 12, 22, 7, 15, 38, 7, 17, 11, 0)
s = 190: (0, 21, 32, 13, 13, 5, 17, 40, 6, 25, 13, 0)
s = 191: (0, 21, 41, 12, 13, 11, 9, 42, 4, 22, 14, 0)
s = 192: (0, 26, 33, 18, 17, 6, 10, 19, 3, 24, 10, 0)
s = 193: (0, 21, 43, 9, 17, 9, 15, 25, 4, 22, 12, 0)
s = 194: (0, 23, 48, 11, 12, 10, 10, 38, 4, 30, 10, 0)
s = 195: (0, 18, 25, 12, 25, 8, 9, 21, 4, 17, 13, 0)
s = 196: (0, 22, 28, 9, 20, 8, 11, 39, 6, 13, 17, 0)
s = 197: (0, 17, 36, 11, 16, 8, 13, 70, 4, 25, 9, 0)
s = 198: (0, 13, 62, 15, 15, 9, 16, 33, 3, 26, 13, 0)
s = 199: (0, 30, 39, 10, 23, 10, 8, 41, 4, 27, 20, 0)
s = 200: (0, 20, 31, 10, 18, 11, 9, 41, 4, 14, 11, 0)
------------------------------------------------------------------------
RESOURCE k = 2
s = 1: (0, 14, 38, 17, 55, 7, 5, 15, 23, 30, 14, 0)
s = 2: (0, 13, 56, 14, 29, 7, 5, 15, 14, 18, 21, 0)
s = 3: (0, 13, 52, 11, 35, 6, 6, 24, 22, 22, 22, 0)
s = 4: (0, 16, 71, 16, 26, 4, 6, 28, 15, 25, 18, 0)
s = 5: (0, 20, 40, 15, 32, 6, 3, 9, 18, 32, 11, 0)
s = 6: (0, 29, 41, 15, 38, 5, 5, 12, 14, 23, 13, 0)
s = 7: (0, 24, 67, 21, 49, 5, 5, 11, 21, 37, 16, 0)
s = 8: (0, 12, 63, 30, 59, 7, 5, 15, 15, 25, 10, 0)
s = 9: (0, 35, 52, 18, 43, 7, 4, 11, 17, 37, 17, 0)
s = 10: (0, 16, 88, 29, 43, 4, 4, 15, 27, 24, 18, 0)
s = 11: (0, 20, 68, 18, 48, 4, 4, 17, 16, 29, 17, 0)
s = 12: (0, 13, 45, 28, 34, 6, 3, 16, 16, 22, 14, 0)
s = 13: (0, 17, 41, 15, 35, 5, 4, 19, 20, 15, 9, 0)
s = 14: (0, 15, 83, 16, 43, 5, 5, 28, 17, 20, 17, 0)
s = 15: (0, 20, 61, 22, 33, 7, 5, 26, 17, 35, 17, 0)
s = 16: (0, 27, 41, 21, 37, 6, 3, 14, 23, 17, 19, 0)
s = 17: (0, 18, 42, 26, 48, 4, 5, 14, 22, 28, 18, 0)
s = 18: (0, 14, 48, 27, 38, 6, 5, 12, 22, 18, 14, 0)
s = 19: (0, 17, 45, 12, 46, 6, 4, 22, 14, 30, 13, 0)
s = 20: (0, 13, 62, 38, 26, 4, 5, 16, 14, 22, 11, 0)
s = 21: (0, 15, 66, 17, 45, 5, 6, 26, 9, 36, 15, 0)
s = 22: (0, 27, 40, 18, 40, 5, 3, 17, 18, 38, 11, 0)
s = 23: (0, 16, 78, 25, 49, 6, 3, 15, 12, 35, 12, 0)
s = 24: (0, 25, 43, 20, 27, 8, 4, 12, 23, 21, 10, 0)
s = 25: (0, 20, 55, 14, 27, 4, 5, 13, 12, 35, 18, 0)
s = 26: (0, 12, 81, 34, 75, 5, 5, 14, 23, 30, 16, 0)
s = 27: (0, 16, 85, 17, 38, 4, 3, 10, 13, 31, 12, 0)
s = 28: (0, 21, 47, 26, 33, 5, 6, 18, 12, 31, 19, 0)
s = 29: (0, 12, 51, 16, 37, 7, 4, 15, 12, 26, 13, 0)
s = 30: (0, 20, 64, 12, 45, 4, 4, 20, 17, 18, 9, 0)
s = 31: (0, 24, 89, 19, 38, 5, 5, 15, 18, 25, 13, 0)
s = 32: (0, 18, 72, 21, 67, 6, 4, 11, 17, 22, 20, 0)
s = 33: (0, 21, 38, 31, 40, 5, 7, 19, 27, 30, 14, 0)
s = 34: (0, 16, 53, 22, 25, 4, 5, 16, 13, 25, 10, 0)
s = 35: (0, 14, 39, 19, 63, 6, 4, 12, 20, 14, 13, 0)
s = 36: (0, 19, 67, 25, 49, 8, 4, 16, 19, 28, 17, 0)
s = 37: (0, 17, 55, 22, 50, 8, 4, 24, 9, 34, 22, 0)
s = 38: (0, 24, 68, 14, 44, 5, 4, 26, 10, 18, 11, 0)
s = 39: (0, 16, 81, 19, 28, 5, 4, 19, 16, 32, 10, 0)
s = 40: (0, 24, 41, 14, 29, 6, 6, 12, 17, 15, 16, 0)
s = 41: (0, 15, 37, 18, 50, 6, 3, 10, 11, 20, 20, 0)
s = 42: (0, 14, 66, 17, 37, 4, 4, 17, 13, 34, 13, 0)
s = 43: (0, 23, 44, 22, 39, 5, 5, 17, 22, 28, 14, 0)
s = 44: (0, 18, 56, 29, 39, 4, 5, 28, 15, 22, 18, 0)
s = 45: (0, 14, 54, 34, 48, 6, 4, 19, 11, 39, 11, 0)
s = 46: (0, 21, 65, 37, 57, 3, 5, 16, 20, 35, 20, 0)
s = 47: (0, 14, 53, 27, 56, 4, 4, 15, 12, 44, 19, 0)
s = 48: (0, 17, 94, 30, 43, 5, 5, 16, 11, 25, 27, 0)
s = 49: (0, 13, 61, 22, 46, 7, 5, 18, 11, 19, 13, 0)
s = 50: (0, 15, 56, 19, 33, 5, 4, 14, 24, 33, 21, 0)
s = 51: (0, 21, 53, 19, 48, 8, 5, 9, 19, 37, 14, 0)
s = 52: (0, 12, 65, 17, 32, 4, 4, 17, 10, 23, 16, 0)
s = 53: (0, 18, 92, 15, 38, 5, 4, 11, 12, 15, 9, 0)
s = 54: (0, 17, 64, 15, 33, 5, 3, 11, 9, 35, 11, 0)
s = 55: (0, 12, 72, 16, 30, 4, 4, 10, 19, 19, 16, 0)
s = 56: (0, 15, 65, 33, 40, 6, 6, 20, 14, 24, 15, 0)
s = 57: (0, 12, 51, 16, 54, 7, 5, 18, 27, 22, 17, 0)
s = 58: (0, 15, 50, 18, 54, 4, 4, 17, 19, 24, 10, 0)
s = 59: (0, 17, 46, 18, 24, 5, 4, 19, 13, 21, 8, 0)
s = 60: (0, 17, 116, 15, 28, 4, 6, 11, 11, 32, 15, 0)
s = 61: (0, 19, 44, 21, 42, 6, 4, 12, 17, 18, 16, 0)
s = 62: (0, 15, 68, 20, 37, 7, 4, 19, 20, 32, 12, 0)
s = 63: (0, 16, 65, 34, 52, 5, 6, 16, 18, 27, 15, 0)
s = 64: (0, 13, 45, 24, 45, 6, 5, 32, 12, 19, 16, 0)
s = 65: (0, 34, 48, 20, 44, 6, 7, 13, 16, 34, 9, 0)
s = 66: (0, 14, 47, 29, 47, 6, 5, 16, 10, 19, 12, 0)
s = 67: (0, 12, 52, 19, 23, 5, 4, 13, 11, 25, 11, 0)
s = 68: (0, 18, 46, 22, 29, 5, 4, 17, 17, 25, 15, 0)
s = 69: (0, 12, 70, 25, 54, 4, 5, 16, 16, 17, 12, 0)
s = 70: (0, 21, 52, 14, 31, 5, 3, 23, 11, 28, 17, 0)
s = 71: (0, 15, 64, 25, 48, 4, 4, 16, 21, 32, 24, 0)
s = 72: (0, 23, 83, 25, 66, 4, 4, 9, 15, 14, 13, 0)
s = 73: (0, 17, 47, 21, 35, 5, 4, 13, 12, 28, 13, 0)
s = 74: (0, 32, 80, 19, 40, 5, 6, 18, 22, 44, 17, 0)
s = 75: (0, 21, 57, 16, 36, 6, 3, 11, 16, 38, 16, 0)
s = 76: (0, 23, 77, 33, 58, 5, 4, 17, 19, 36, 12, 0)
s = 77: (0, 15, 41, 26, 54, 4, 6, 14, 10, 26, 9, 0)
s = 78: (0, 14, 44, 15, 55, 7, 4, 11, 14, 21, 22, 0)
s = 79: (0, 16, 37, 24, 31, 7, 3, 24, 22, 15, 13, 0)
s = 80: (0, 28, 37, 17, 33, 6, 5, 18, 16, 26, 13, 0)
s = 81: (0, 19, 66, 20, 43, 6, 3, 12, 11, 32, 14, 0)
s = 82: (0, 15, 57, 26, 49, 6, 3, 18, 13, 36, 12, 0)
s = 83: (0, 23, 56, 23, 56, 5, 6, 20, 24, 22, 11, 0)
s = 84: (0, 25, 67, 16, 69, 6, 5, 15, 21, 36, 24, 0)
s = 85: (0, 17, 73, 15, 33, 6, 4, 26, 11, 30, 17, 0)
s = 86: (0, 20, 53, 17, 24, 4, 6, 20, 16, 22, 18, 0)
s = 87: (0, 20, 55, 18, 33, 6, 3, 12, 13, 21, 8, 0)
s = 88: (0, 11, 41, 18, 49, 4, 6, 19, 14, 20, 9, 0)
s = 89: (0, 19, 85, 18, 35, 5, 4, 21, 27, 35, 16, 0)
s = 90: (0, 16, 110, 18, 33, 8, 5, 15, 21, 21, 18, 0)
s = 91: (0, 17, 73, 17, 37, 8, 7, 11, 19, 23, 21, 0)
s = 92: (0, 28, 36, 25, 35, 3, 4, 18, 21, 27, 17, 0)
s = 93: (0, 20, 80, 15, 36, 8, 7, 16, 11, 24, 14, 0)
s = 94: (0, 23, 56, 13, 44, 5, 5, 25, 15, 19, 11, 0)
s = 95: (0, 19, 50, 31, 22, 6, 5, 14, 21, 25, 12, 0)
s = 96: (0, 14, 84, 14, 23, 7, 4, 13, 19, 28, 15, 0)
s = 97: (0, 23, 97, 24, 38, 4, 6, 17, 11, 29, 17, 0)
s = 98: (0, 19, 69, 23, 42, 6, 5, 15, 14, 40, 12, 0)
s = 99: (0, 25, 61, 15, 39, 7, 4, 18, 17, 21, 14, 0)
s = 100: (0, 18, 71, 25, 30, 5, 4, 24, 18, 36, 15, 0)
s = 101: (0, 24, 42, 34, 36, 4, 4, 13, 21, 20, 20, 0)
s = 102: (0, 21, 67, 15, 24, 6, 7, 14, 18, 31, 16, 0)
s = 103: (0, 30, 68, 28, 40, 5, 7, 20, 14, 26, 21, 0)
s = 104: (0, 12, 45, 20, 48, 6, 3, 13, 13, 19, 17, 0)
s = 105: (0, 14, 46, 17, 41, 5, 4, 21, 15, 19, 18, 0)
s = 106: (0, 26, 83, 26, 24, 4, 5, 12, 11, 23, 17, 0)
s = 107: (0, 15, 47, 23, 34, 4, 3, 27, 20, 19, 17, 0)
s = 108: (0, 17, 53, 28, 24, 6, 6, 18, 15, 35, 17, 0)
s = 109: (0, 21, 64, 26, 46, 6, 5, 16, 19, 23, 15, 0)
s = 110: (0, 26, 46, 12, 33, 6, 7, 14, 18, 30, 13, 0)
s = 111: (0, 12, 38, 16, 45, 5, 7, 17, 23, 25, 13, 0)
s = 112: (0, 13, 54, 13, 42, 5, 4, 11, 17, 23, 17, 0)
s = 113: (0, 31, 44, 13, 26, 4, 3, 25, 19, 35, 12, 0)
s = 114: (0, 16, 65, 13, 45, 5, 4, 15, 19, 25, 14, 0)
s = 115: (0, 19, 52, 21, 59, 7, 4, 20, 13, 22, 13, 0)
s = 116: (0, 15, 82, 26, 25, 5, 4, 20, 12, 25, 13, 0)
s = 117: (0, 13, 60, 26, 46, 9, 4, 21, 16, 27, 11, 0)
s = 118: (0, 11, 65, 13, 46, 4, 6, 19, 15, 21, 16, 0)
s = 119: (0, 16, 72, 25, 45, 5, 4, 23, 15, 17, 16, 0)
s = 120: (0, 14, 47, 22, 57, 5, 7, 14, 15, 26, 16, 0)
s = 121: (0, 12, 36, 23, 28, 5, 4, 11, 16, 14, 14, 0)
s = 122: (0, 17, 72, 19, 51, 6, 4, 17, 20, 26, 17, 0)
s = 123: (0, 14, 53, 25, 48, 7, 6, 20, 25, 18, 10, 0)
s = 124: (0, 21, 61, 20, 59, 5, 7, 12, 19, 15, 14, 0)
s = 125: (0, 21, 72, 21, 36, 6, 5, 14, 16, 21, 16, 0)
s = 126: (0, 32, 35, 23, 31, 5, 4, 22, 10, 24, 10, 0)
s = 127: (0, 23, 73, 24, 28, 4, 5, 10, 18, 25, 15, 0)
s = 128: (0, 23, 34, 36, 38, 5, 5, 10, 17, 17, 17, 0)
s = 129: (0, 15, 51, 21, 31, 8, 6, 13, 15, 29, 16, 0)
s = 130: (0, 16, 49, 20, 34, 6, 6, 19, 11, 26, 13, 0)
s = 131: (0, 17, 45, 13, 52, 10, 3, 9, 22, 18, 17, 0)
s = 132: (0, 18, 33, 21, 33, 5, 5, 15, 15, 22, 11, 0)
s = 133: (0, 17, 48, 14, 32, 5, 6, 26, 22, 19, 16, 0)
s = 134: (0, 16, 65, 29, 39, 4, 4, 12, 16, 19, 12, 0)
s = 135: (0, 28, 76, 31, 40, 7, 4, 25, 14, 36, 11, 0)
s = 136: (0, 17, 74, 15, 46, 7, 3, 11, 12, 44, 17, 0)
s = 137: (0, 27, 97, 12, 49, 7, 6, 12, 14, 33, 20, 0)
s = 138: (0, 14, 71, 20, 37, 4, 4, 19, 14, 17, 8, 0)
s = 139: (0, 11, 95, 25, 37, 4, 3, 24, 12, 28, 19, 0)
s = 140: (0, 15, 107, 17, 27, 4, 3, 17, 16, 36, 12, 0)
s = 141: (0, 13, 80, 19, 22, 5, 3, 11, 19, 17, 21, 0)
s = 142: (0, 22, 73, 20, 29, 5, 6, 22, 16, 27, 14, 0)
s = 143: (0, 14, 80, 23, 31, 3, 7, 21, 17, 17, 13, 0)
s = 144: (0, 25, 116, 27, 68, 4, 4, 20, 23, 32, 11, 0)
s = 145: (0, 19, 34, 18, 30, 5, 4, 17, 17, 37, 19, 0)
s = 146: (0, 27, 56, 17, 45, 8, 7, 15, 19, 23, 14, 0)
s = 147: (0, 24, 35, 20, 45, 7, 4, 13, 11, 30, 26, 0)
s = 148: (0, 18, 66, 23, 41, 6, 5, 21, 17, 21, 14, 0)
s = 149: (0, 13, 64, 26, 60, 5, 3, 9, 12, 27, 11, 0)
s = 150: (0, 12, 79, 18, 23, 3, 6, 23, 16, 30, 18, 0)
s = 151: (0, 14, 68, 18, 47, 8, 4, 17, 11, 38, 24, 0)
s = 152: (0, 17, 67, 14, 38, 5, 4, 22, 17, 20, 15, 0)
s = 153: (0, 25, 39, 23, 30, 6, 3, 14, 19, 22, 17, 0)
s = 154: (0, 12, 84, 24, 59, 4, 4, 27, 21, 20, 18, 0)
s = 155: (0, 17, 82, 30, 35, 4, 3, 23, 27, 18, 13, 0)
s = 156: (0, 16, 57, 20, 40, 4, 5, 16, 10, 17, 18, 0)
s = 157: (0, 28, 57, 26, 39, 5, 3, 16, 16, 40, 20, 0)
s = 158: (0, 29, 44, 16, 35, 7, 3, 10, 16, 24, 19, 0)
s = 159: (0, 13, 47, 17, 28, 6, 6, 18, 21, 21, 17, 0)
s = 160: (0, 11, 36, 24, 30, 5, 3, 21, 9, 29, 16, 0)
s = 161: (0, 16, 61, 19, 30, 9, 3, 19, 10, 22, 13, 0)
s = 162: (0, 18, 67, 19, 30, 3, 5, 17, 12, 30, 22, 0)
s = 163: (0, 22, 56, 16, 55, 3, 5, 12, 13, 27, 15, 0)
s = 164: (0, 28, 73, 33, 29, 4, 3, 21, 15, 15, 14, 0)
s = 165: (0, 13, 82, 20, 66, 4, 3, 15, 18, 21, 13, 0)
s = 166: (0, 27, 103, 25, 45, 4, 6, 11, 16, 20, 10, 0)
s = 167: (0, 23, 85, 22, 53, 5, 4, 15, 12, 38, 12, 0)
s = 168: (0, 20, 106, 25, 36, 6, 5, 17, 16, 29, 9, 0)
s = 169: (0, 23, 42, 16, 42, 4, 4, 10, 11, 31, 17, 0)
s = 170: (0, 17, 61, 18, 29, 7, 4, 17, 28, 25, 12, 0)
s = 171: (0, 15, 75, 13, 44, 6, 5, 15, 21, 30, 12, 0)
s = 172: (0, 12, 45, 23, 21, 6, 3, 10, 21, 19, 18, 0)
s = 173: (0, 20, 72, 18, 53, 5, 5, 19, 14, 17, 9, 0)
s = 174: (0, 22, 78, 17, 51, 5, 4, 23, 17, 19, 18, 0)
s = 175: (0, 16, 63, 28, 34, 4, 5, 23, 13, 33, 15, 0)
s = 176: (0, 18, 44, 14, 27, 7, 5, 11, 21, 20, 11, 0)
s = 177: (0, 23, 35, 26, 49, 5, 7, 13, 21, 26, 18, 0)
s = 178: (0, 13, 37, 19, 38, 8, 5, 23, 28, 32, 18, 0)
s = 179: (0, 17, 69, 22, 41, 4, 3, 16, 15, 24, 18, 0)
s = 180: (0, 16, 69, 23, 39, 5, 4, 15, 10, 20, 11, 0)
s = 181: (0, 11, 63, 20, 35, 5, 4, 29, 13, 32, 12, 0)
s = 182: (0, 21, 41, 20, 44, 5, 6, 15, 17, 32, 10, 0)
s = 183: (0, 15, 72, 11, 43, 6, 4, 14, 13, 26, 13, 0)
s = 184: (0, 20, 47, 19, 50, 6, 6, 20, 19, 28, 9, 0)
s = 185: (0, 14, 68, 24, 62, 6, 5, 23, 15, 25, 12, 0)
s = 186: (0, 19, 75, 22, 31, 6, 8, 14, 12, 26, 10, 0)
s = 187: (0, 19, 49, 24, 27, 4, 5, 11, 17, 25, 11, 0)
s = 188: (0, 16, 66, 26, 42, 4, 3, 12, 19, 22, 23, 0)
s = 189: (0, 13, 48, 20, 43, 4, 5, 17, 25, 21, 11, 0)
s = 190: (0, 18, 52, 21, 25, 4, 6, 18, 21, 32, 13, 0)
s = 191: (0, 18, 67, 20, 26, 7, 3, 19, 14, 27, 14, 0)
s = 192: (0, 23, 55, 29, 33, 4, 4, 9, 11, 30, 10, 0)
s = 193: (0, 18, 72, 15, 34, 6, 5, 12, 14, 27, 12, 0)
s = 194: (0, 19, 79, 18, 23, 6, 4, 17, 16, 37, 10, 0)
s = 195: (0, 16, 41, 20, 50, 5, 3, 10, 14, 21, 13, 0)
s = 196: (0, 19, 46, 14, 39, 5, 4, 18, 21, 17, 17, 0)
s = 197: (0, 15, 60, 18, 31, 5, 5, 31, 13, 31, 9, 0)
s = 198: (0, 11, 104, 25, 29, 6, 6, 15, 11, 32, 13, 0)
s = 199: (0, 26, 65, 16, 45, 7, 3, 18, 15, 33, 20, 0)
s = 200: (0, 18, 52, 17, 36, 7, 3, 18, 16, 17, 11, 0)
------------------------------------------------------------------------
RESOURCE k = 3
s = 1: (0, 10, 27, 7, 55, 13, 18, 11, 20, 59, 20, 0)
s = 2: (0, 9, 39, 6, 29, 12, 20, 11, 13, 35, 29, 0)
s = 3: (0, 9, 37, 5, 35, 10, 21, 18, 20, 44, 31, 0)
s = 4: (0, 11, 50, 7, 26, 7, 22, 21, 14, 49, 26, 0)
s = 5: (0, 14, 28, 6, 32, 10, 11, 7, 16, 64, 15, 0)
s = 6: (0, 20, 29, 6, 38, 8, 19, 9, 13, 46, 19, 0)
s = 7: (0, 16, 47, 9, 49, 9, 17, 9, 18, 73, 23, 0)
s = 8: (0, 8, 44, 12, 59, 13, 18, 11, 13, 50, 13, 0)
s = 9: (0, 23, 36, 7, 43, 12, 15, 8, 15, 73, 24, 0)
s = 10: (0, 11, 62, 12, 43, 7, 13, 11, 24, 48, 26, 0)
s = 11: (0, 13, 47, 8, 48, 7, 14, 13, 14, 57, 25, 0)
s = 12: (0, 9, 31, 11, 34, 11, 10, 12, 14, 43, 20, 0)
s = 13: (0, 12, 29, 6, 35, 9, 16, 14, 18, 29, 13, 0)
s = 14: (0, 10, 58, 7, 43, 9, 19, 21, 15, 39, 25, 0)
s = 15: (0, 13, 43, 9, 33, 11, 18, 20, 15, 69, 24, 0)
s = 16: (0, 18, 29, 9, 37, 10, 12, 11, 20, 34, 26, 0)
s = 17: (0, 12, 30, 11, 48, 6, 18, 11, 19, 56, 25, 0)
s = 18: (0, 10, 34, 11, 38, 10, 17, 9, 20, 35, 20, 0)
s = 19: (0, 11, 32, 5, 46, 11, 14, 17, 12, 60, 18, 0)
s = 20: (0, 9, 43, 16, 26, 6, 18, 12, 12, 44, 15, 0)
s = 21: (0, 10, 46, 7, 45, 9, 21, 19, 8, 71, 22, 0)
s = 22: (0, 18, 28, 7, 40, 9, 12, 13, 15, 76, 15, 0)
s = 23: (0, 11, 55, 10, 49, 10, 12, 11, 11, 70, 16, 0)
s = 24: (0, 17, 30, 8, 27, 14, 13, 9, 20, 42, 15, 0)
s = 25: (0, 14, 39, 6, 27, 7, 19, 10, 11, 70, 25, 0)
s = 26: (0, 8, 57, 14, 75, 9, 18, 10, 20, 59, 22, 0)
s = 27: (0, 11, 60, 7, 38, 8, 11, 8, 11, 62, 18, 0)
s = 28: (0, 14, 33, 11, 33, 9, 24, 13, 11, 62, 26, 0)
s = 29: (0, 8, 36, 7, 37, 12, 16, 11, 10, 52, 18, 0)
s = 30: (0, 14, 45, 5, 45, 6, 15, 15, 15, 35, 13, 0)
s = 31: (0, 16, 62, 8, 38, 9, 17, 11, 16, 50, 18, 0)
s = 32: (0, 12, 50, 9, 67, 11, 14, 8, 15, 43, 29, 0)
s = 33: (0, 14, 27, 13, 40, 8, 27, 15, 24, 59, 20, 0)
s = 34: (0, 11, 37, 9, 25, 8, 17, 12, 11, 50, 14, 0)
s = 35: (0, 9, 28, 8, 63, 10, 15, 9, 17, 28, 19, 0)
s = 36: (0, 13, 47, 10, 49, 14, 13, 12, 17, 56, 24, 0)
s = 37: (0, 12, 39, 9, 50, 13, 16, 18, 8, 68, 32, 0)
s = 38: (0, 16, 48, 6, 44, 8, 14, 20, 9, 36, 16, 0)
s = 39: (0, 11, 57, 8, 28, 9, 16, 14, 14, 64, 14, 0)
s = 40: (0, 16, 29, 6, 29, 10, 21, 9, 15, 29, 22, 0)
s = 41: (0, 10, 26, 7, 50, 10, 11, 7, 10, 40, 29, 0)
s = 42: (0, 9, 46, 7, 37, 8, 13, 13, 11, 67, 18, 0)
s = 43: (0, 15, 31, 9, 39, 9, 20, 13, 19, 55, 20, 0)
s = 44: (0, 12, 40, 12, 39, 7, 19, 21, 13, 44, 26, 0)
s = 45: (0, 9, 38, 14, 48, 11, 13, 14, 10, 77, 16, 0)
s = 46: (0, 14, 46, 15, 57, 5, 18, 12, 18, 70, 29, 0)
s = 47: (0, 9, 38, 11, 56, 7, 14, 11, 11, 88, 27, 0)
s = 48: (0, 11, 66, 12, 43, 9, 19, 12, 9, 49, 39, 0)
s = 49: (0, 9, 43, 9, 46, 12, 19, 14, 10, 38, 19, 0)
s = 50: (0, 10, 39, 8, 33, 9, 16, 11, 21, 65, 30, 0)
s = 51: (0, 14, 37, 8, 48, 13, 19, 7, 17, 73, 19, 0)
s = 52: (0, 8, 45, 7, 32, 7, 13, 13, 9, 46, 23, 0)
s = 53: (0, 12, 65, 6, 38, 8, 15, 9, 10, 30, 13, 0)
s = 54: (0, 12, 45, 6, 33, 8, 10, 8, 8, 70, 16, 0)
s = 55: (0, 8, 51, 7, 30, 7, 13, 8, 16, 37, 23, 0)
s = 56: (0, 10, 46, 13, 40, 10, 21, 15, 13, 47, 22, 0)
s = 57: (0, 8, 36, 7, 54, 12, 19, 13, 24, 43, 25, 0)
s = 58: (0, 10, 35, 7, 54, 7, 13, 13, 16, 47, 14, 0)
s = 59: (0, 11, 32, 7, 24, 9, 14, 14, 12, 41, 12, 0)
s = 60: (0, 11, 82, 6, 28, 8, 21, 8, 9, 63, 22, 0)
s = 61: (0, 13, 31, 9, 42, 11, 16, 9, 15, 35, 22, 0)
s = 62: (0, 10, 48, 8, 37, 13, 13, 14, 17, 63, 17, 0)
s = 63: (0, 11, 46, 14, 52, 9, 24, 12, 16, 54, 21, 0)
s = 64: (0, 9, 32, 10, 45, 10, 19, 24, 11, 37, 23, 0)
s = 65: (0, 23, 34, 8, 44, 11, 27, 10, 14, 68, 13, 0)
s = 66: (0, 10, 33, 12, 47, 10, 20, 12, 9, 37, 17, 0)
s = 67: (0, 8, 36, 8, 23, 9, 14, 10, 10, 49, 16, 0)
s = 68: (0, 12, 32, 9, 29, 9, 15, 13, 15, 49, 21, 0)
s = 69: (0, 8, 49, 10, 54, 7, 18, 12, 14, 34, 16, 0)
s = 70: (0, 14, 37, 6, 31, 8, 12, 18, 9, 56, 25, 0)
s = 71: (0, 10, 45, 10, 48, 7, 13, 12, 19, 64, 35, 0)
s = 72: (0, 16, 58, 10, 66, 7, 15, 7, 13, 27, 19, 0)
s = 73: (0, 12, 33, 9, 35, 8, 16, 10, 11, 56, 18, 0)
s = 74: (0, 22, 56, 8, 40, 8, 22, 13, 19, 88, 25, 0)
s = 75: (0, 14, 40, 7, 36, 11, 12, 8, 14, 75, 23, 0)
s = 76: (0, 15, 54, 13, 58, 8, 15, 13, 17, 71, 17, 0)
s = 77: (0, 10, 29, 11, 54, 6, 24, 11, 9, 51, 13, 0)
s = 78: (0, 9, 31, 6, 55, 13, 13, 8, 13, 41, 32, 0)
s = 79: (0, 11, 26, 10, 31, 12, 11, 18, 19, 30, 18, 0)
s = 80: (0, 19, 26, 7, 33, 10, 19, 14, 14, 51, 18, 0)
s = 81: (0, 13, 46, 8, 43, 10, 10, 9, 10, 64, 20, 0)
s = 82: (0, 10, 40, 11, 49, 10, 11, 14, 12, 72, 16, 0)
s = 83: (0, 16, 39, 10, 56, 9, 22, 15, 21, 43, 16, 0)
s = 84: (0, 17, 47, 7, 69, 10, 19, 11, 18, 71, 34, 0)
s = 85: (0, 11, 51, 6, 33, 11, 14, 20, 10, 60, 24, 0)
s = 86: (0, 14, 37, 7, 24, 7, 21, 15, 14, 43, 26, 0)
s = 87: (0, 13, 39, 7, 33, 10, 10, 9, 12, 41, 12, 0)
s = 88: (0, 8, 29, 7, 49, 7, 23, 14, 12, 39, 13, 0)
s = 89: (0, 13, 60, 8, 35, 9, 13, 16, 24, 69, 23, 0)
s = 90: (0, 11, 77, 8, 33, 14, 19, 12, 18, 42, 25, 0)
s = 91: (0, 12, 51, 7, 37, 14, 26, 9, 17, 45, 30, 0)
s = 92: (0, 19, 26, 10, 35, 5, 15, 14, 19, 53, 24, 0)
s = 93: (0, 14, 56, 6, 36, 14, 26, 12, 9, 47, 20, 0)
s = 94: (0, 16, 39, 5, 44, 8, 17, 19, 13, 38, 16, 0)
s = 95: (0, 13, 35, 13, 22, 10, 18, 10, 19, 49, 17, 0)
s = 96: (0, 10, 59, 6, 23, 13, 15, 10, 16, 55, 22, 0)
s = 97: (0, 15, 68, 10, 38, 8, 23, 13, 10, 58, 24, 0)
s = 98: (0, 13, 49, 10, 42, 10, 20, 11, 12, 80, 17, 0)
s = 99: (0, 17, 43, 6, 39, 12, 13, 14, 15, 41, 19, 0)
s = 100: (0, 12, 50, 10, 30, 9, 16, 18, 15, 71, 21, 0)
s = 101: (0, 16, 30, 14, 36, 7, 16, 10, 18, 39, 28, 0)
s = 102: (0, 14, 47, 6, 24, 10, 25, 10, 16, 62, 22, 0)
s = 103: (0, 20, 48, 12, 40, 8, 27, 15, 12, 52, 29, 0)
s = 104: (0, 8, 32, 8, 48, 10, 12, 10, 11, 37, 24, 0)
s = 105: (0, 10, 32, 7, 41, 9, 16, 16, 13, 37, 26, 0)
s = 106: (0, 17, 59, 11, 24, 7, 19, 9, 10, 46, 24, 0)
s = 107: (0, 10, 33, 9, 34, 8, 9, 20, 17, 37, 24, 0)
s = 108: (0, 11, 37, 12, 24, 10, 23, 13, 13, 70, 24, 0)
s = 109: (0, 14, 45, 11, 46, 11, 19, 12, 16, 45, 21, 0)
s = 110: (0, 17, 32, 5, 33, 11, 26, 11, 16, 59, 18, 0)
s = 111: (0, 8, 27, 7, 45, 8, 26, 13, 20, 49, 19, 0)
s = 112: (0, 9, 38, 5, 42, 8, 13, 9, 15, 45, 24, 0)
s = 113: (0, 21, 31, 6, 26, 6, 12, 19, 16, 70, 17, 0)
s = 114: (0, 11, 46, 5, 45, 8, 14, 12, 17, 50, 20, 0)
s = 115: (0, 13, 37, 9, 59, 12, 14, 15, 11, 44, 18, 0)
s = 116: (0, 10, 58, 11, 25, 8, 15, 15, 10, 49, 19, 0)
s = 117: (0, 9, 42, 11, 46, 16, 14, 16, 14, 54, 15, 0)
s = 118: (0, 7, 45, 6, 46, 6, 23, 15, 13, 41, 22, 0)
s = 119: (0, 11, 50, 10, 45, 8, 14, 17, 13, 33, 23, 0)
s = 120: (0, 10, 33, 9, 57, 8, 28, 11, 14, 51, 23, 0)
s = 121: (0, 8, 26, 9, 28, 9, 16, 8, 14, 27, 19, 0)
s = 122: (0, 12, 50, 8, 51, 11, 16, 13, 18, 52, 25, 0)
s = 123: (0, 9, 37, 10, 48, 12, 24, 15, 22, 36, 15, 0)
s = 124: (0, 14, 43, 8, 59, 8, 28, 9, 17, 29, 20, 0)
s = 125: (0, 14, 51, 9, 36, 10, 18, 11, 14, 41, 22, 0)
s = 126: (0, 22, 25, 10, 31, 9, 14, 17, 8, 47, 14, 0)
s = 127: (0, 16, 51, 10, 28, 7, 20, 7, 16, 49, 21, 0)
s = 128: (0, 15, 24, 15, 38, 9, 18, 7, 15, 33, 25, 0)
s = 129: (0, 10, 36, 9, 31, 14, 22, 10, 13, 58, 23, 0)
s = 130: (0, 11, 34, 8, 34, 10, 21, 14, 10, 51, 19, 0)
s = 131: (0, 12, 31, 6, 52, 18, 11, 7, 20, 36, 24, 0)
s = 132: (0, 12, 23, 9, 33, 9, 18, 11, 13, 44, 15, 0)
s = 133: (0, 11, 34, 6, 32, 8, 22, 19, 19, 37, 23, 0)
s = 134: (0, 11, 46, 12, 39, 7, 16, 9, 14, 38, 17, 0)
s = 135: (0, 19, 53, 13, 40, 13, 15, 19, 12, 72, 15, 0)
s = 136: (0, 11, 52, 6, 46, 12, 10, 8, 11, 88, 24, 0)
s = 137: (0, 18, 68, 5, 49, 12, 21, 9, 12, 66, 28, 0)
s = 138: (0, 10, 50, 8, 37, 7, 15, 14, 13, 33, 11, 0)
s = 139: (0, 8, 67, 10, 37, 7, 12, 18, 11, 56, 27, 0)
s = 140: (0, 10, 75, 7, 27, 8, 10, 13, 14, 72, 17, 0)
s = 141: (0, 9, 56, 8, 22, 9, 9, 9, 17, 34, 29, 0)
s = 142: (0, 15, 52, 8, 29, 9, 23, 16, 14, 53, 20, 0)
s = 143: (0, 9, 56, 10, 31, 6, 25, 16, 15, 33, 18, 0)
s = 144: (0, 17, 82, 11, 68, 7, 15, 15, 20, 64, 15, 0)
s = 145: (0, 13, 24, 8, 30, 9, 13, 13, 15, 73, 27, 0)
s = 146: (0, 18, 39, 7, 45, 13, 26, 11, 16, 45, 20, 0)
s = 147: (0, 16, 25, 8, 45, 12, 16, 10, 10, 60, 38, 0)
s = 148: (0, 12, 46, 10, 41, 10, 20, 16, 15, 42, 19, 0)
s = 149: (0, 9, 45, 11, 60, 8, 10, 7, 11, 54, 16, 0)
s = 150: (0, 8, 55, 7, 23, 5, 23, 18, 14, 59, 26, 0)
s = 151: (0, 9, 48, 8, 47, 14, 15, 13, 10, 76, 34, 0)
s = 152: (0, 11, 47, 6, 38, 8, 15, 17, 15, 40, 21, 0)
s = 153: (0, 17, 28, 9, 30, 11, 12, 11, 17, 44, 24, 0)
s = 154: (0, 8, 59, 10, 59, 7, 15, 20, 18, 39, 25, 0)
s = 155: (0, 12, 57, 12, 35, 7, 10, 17, 24, 35, 18, 0)
s = 156: (0, 11, 40, 8, 40, 6, 20, 12, 9, 33, 26, 0)
s = 157: (0, 19, 40, 11, 39, 8, 10, 12, 14, 79, 29, 0)
s = 158: (0, 19, 31, 7, 35, 12, 12, 8, 14, 47, 27, 0)
s = 159: (0, 9, 33, 7, 28, 10, 24, 14, 19, 41, 23, 0)
s = 160: (0, 7, 25, 10, 30, 8, 12, 16, 8, 58, 23, 0)
s = 161: (0, 11, 43, 8, 30, 16, 12, 14, 9, 43, 19, 0)
s = 162: (0, 12, 47, 8, 30, 6, 17, 13, 10, 60, 31, 0)
s = 163: (0, 15, 39, 7, 55, 6, 19, 9, 12, 53, 21, 0)
s = 164: (0, 19, 52, 14, 29, 7, 10, 16, 13, 29, 20, 0)
s = 165: (0, 9, 57, 8, 66, 6, 12, 11, 16, 41, 18, 0)
s = 166: (0, 18, 73, 10, 45, 7, 21, 8, 14, 40, 14, 0)
s = 167: (0, 16, 59, 9, 53, 9, 13, 11, 11, 75, 17, 0)
s = 168: (0, 14, 74, 10, 36, 10, 18, 13, 14, 58, 13, 0)
s = 169: (0, 16, 29, 7, 42, 7, 16, 8, 9, 62, 24, 0)
s = 170: (0, 12, 43, 7, 29, 11, 14, 13, 25, 50, 17, 0)
s = 171: (0, 10, 53, 5, 44, 10, 20, 12, 18, 59, 17, 0)
s = 172: (0, 8, 32, 10, 21, 10, 10, 8, 19, 37, 25, 0)
s = 173: (0, 14, 50, 7, 53, 8, 17, 14, 13, 34, 13, 0)
s = 174: (0, 15, 55, 7, 51, 8, 16, 17, 15, 38, 25, 0)
s = 175: (0, 11, 44, 12, 34, 6, 17, 17, 12, 66, 22, 0)
s = 176: (0, 12, 31, 6, 27, 12, 18, 8, 19, 40, 16, 0)
s = 177: (0, 16, 25, 11, 49, 8, 26, 10, 18, 52, 26, 0)
s = 178: (0, 9, 26, 8, 38, 15, 19, 17, 24, 63, 26, 0)
s = 179: (0, 12, 48, 9, 41, 6, 12, 12, 14, 48, 26, 0)
s = 180: (0, 11, 49, 10, 39, 9, 16, 11, 9, 39, 15, 0)
s = 181: (0, 8, 44, 8, 35, 8, 15, 22, 12, 63, 17, 0)
s = 182: (0, 14, 29, 8, 44, 9, 23, 11, 15, 64, 14, 0)
s = 183: (0, 10, 51, 5, 43, 11, 14, 11, 11, 52, 18, 0)
s = 184: (0, 13, 33, 8, 50, 10, 24, 15, 17, 55, 13, 0)
s = 185: (0, 10, 48, 10, 62, 10, 18, 17, 13, 49, 17, 0)
s = 186: (0, 13, 53, 9, 31, 11, 31, 10, 11, 51, 15, 0)
s = 187: (0, 13, 34, 10, 27, 7, 19, 8, 15, 50, 16, 0)
s = 188: (0, 11, 47, 11, 42, 7, 12, 9, 17, 44, 32, 0)
s = 189: (0, 9, 34, 8, 43, 7, 20, 13, 22, 42, 16, 0)
s = 190: (0, 12, 37, 9, 25, 6, 22, 14, 19, 63, 18, 0)
s = 191: (0, 12, 47, 8, 26, 12, 12, 14, 12, 54, 20, 0)
s = 192: (0, 15, 39, 12, 33, 6, 13, 7, 10, 59, 13, 0)
s = 193: (0, 12, 50, 6, 34, 10, 20, 9, 12, 53, 16, 0)
s = 194: (0, 13, 56, 7, 23, 11, 14, 13, 14, 74, 14, 0)
s = 195: (0, 11, 29, 8, 50, 9, 11, 7, 13, 41, 19, 0)
s = 196: (0, 13, 32, 6, 39, 8, 15, 13, 18, 33, 24, 0)
s = 197: (0, 10, 42, 7, 31, 8, 17, 24, 11, 62, 12, 0)
s = 198: (0, 7, 73, 10, 29, 10, 21, 11, 10, 63, 19, 0)
s = 199: (0, 17, 46, 7, 45, 11, 11, 14, 13, 66, 28, 0)
s = 200: (0, 12, 36, 7, 36, 12, 12, 14, 14, 34, 16, 0)
************************************************************************
ES/LS-VALUES:
jobnr.   ES(i)    LS(i)
------------------------------------------------------------------------
  0        0        0
  1        0       50
  2        0       40
  3        0       48
  4        4       59
  5       11       62
  6       11       52
  7       15       56
  8       13       69
  9       23       64
 10       11       69
 11       32       73
************************************************************************
BIG-M-VALUES:
M1 = 69, M2 = 268
************************************************************************
